p cnf 16 61
6 10 -14 0
2 -6 13 0
2 7 15 0
-2 9 -16 0
-6 15 -16 0
3 10 15 0
-3 -7 13 0
-7 -8 -10 0
6 -15 -16 0
-4 -5 -11 0
1 -3 9 0
-1 12 14 0
6 9 11 0
-7 8 -12 0
-1 4 -12 0
-8 -9 -15 0
-1 -2 -16 0
-13 -14 -16 0
-1 7 -11 0
-1 7 -12 0
1 -12 16 0
-3 -8 15 0
-2 -6 -11 0
4 10 12 0
-2 8 11 0
7 -11 -12 0
-1 -4 -9 0
5 -8 14 0
7 8 13 0
-5 -10 -11 0
-2 11 -16 0
3 11 -16 0
4 -5 -8 0
-3 14 16 0
1 4 9 0
-1 9 12 0
6 -7 -10 0
7 9 -16 0
-6 8 -15 0
-4 -12 -14 0
2 -6 9 0
6 -9 -13 0
-4 10 12 0
-9 10 15 0
3 -9 13 0
-4 5 -10 0
-13 -15 16 0
-10 12 -16 0
-3 10 11 0
-14 15 -16 0
7 10 -15 0
-6 9 16 0
5 -7 -16 0
-12 14 -15 0
10 -11 14 0
7 9 12 0
-8 -10 -14 0
3 4 7 0
3 6 -16 0
1 15 16 0
-6 7 -13 0
